c smth
s vc 200 135
199
198
196
195
190
188
187
185
182
181
180
177
175
174
172
171
170
168
163
162
161
160
158
156
154
152
150
149
148
147
146
144
143
141
140
138
136
135
133
131
130
129
128
127
126
122
121
120
119
118
116
115
114
112
110
109
108
107
105
100
99
98
97
96
94
93
92
90
88
87
86
85
84
81
80
78
77
76
74
73
72
71
70
66
65
64
63
62
61
60
59
58
57
56
55
54
53
52
51
50
49
48
47
45
44
43
42
40
37
36
35
34
33
32
31
30
28
27
26
25
23
21
20
18
17
16
15
13
10
9
7
5
4
3
2